(declare-fun temp126_2 () (_ BitVec 64))
(declare-fun temp126_1 () (_ BitVec 64))
(declare-fun temp126_4 () (_ BitVec 64))
(declare-fun temp126_3 () (_ BitVec 64))
(declare-fun temp126_6 () (_ BitVec 64))
(declare-fun temp126_5 () (_ BitVec 64))
(declare-fun temp126_8 () (_ BitVec 64))
(declare-fun temp126_7 () (_ BitVec 64))
(declare-fun temp126_9 () (_ BitVec 64))
(declare-fun var2174808 () (_ BitVec 64))
(declare-fun var2174932 () (_ BitVec 64))
(declare-fun temp126_11 () (_ BitVec 64))
(declare-fun temp126_10 () (_ BitVec 64))
(declare-fun temp126_13 () (_ BitVec 64))
(declare-fun temp126_12 () (_ BitVec 64))
(declare-fun temp126_15 () (_ BitVec 64))
(declare-fun temp126_14 () (_ BitVec 64))
(declare-fun temp126_17 () (_ BitVec 64))
(declare-fun temp126_16 () (_ BitVec 64))
(declare-fun temp126_18 () (_ BitVec 64))
(declare-fun var5189464 () (_ BitVec 64))
(declare-fun var5189588 () (_ BitVec 64))
(declare-fun temp126_20 () (_ BitVec 64))
(declare-fun temp126_19 () (_ BitVec 64))
(declare-fun temp126_22 () (_ BitVec 64))
(declare-fun temp126_21 () (_ BitVec 64))
(declare-fun temp126_24 () (_ BitVec 64))
(declare-fun temp126_23 () (_ BitVec 64))
(declare-fun temp126_26 () (_ BitVec 64))
(declare-fun temp126_25 () (_ BitVec 64))
(declare-fun temp126_28 () (_ BitVec 64))
(declare-fun temp126_27 () (_ BitVec 64))
(declare-fun temp126_29 () (_ BitVec 64))
(declare-fun var8269656 () (_ BitVec 64))
(declare-fun var8269780 () (_ BitVec 64))
(declare-fun temp126_30 () (_ BitVec 64))
(declare-fun var8522311 () (_ BitVec 64))
(assert (= temp126_2 #x0000000000000000))
(assert (= temp126_1 temp126_2))
(assert (= temp126_4 #x0000000000000001))
(assert (= temp126_3 temp126_4))
(assert (= temp126_6 #x0000000000000000))
(assert (= temp126_5 temp126_6))
(assert (= temp126_8 #x0000000000000001))
(assert (= temp126_7 temp126_8))
(assert (= temp126_9 #x0000000000000000))
(assert (= var2174808 temp126_9))
(assert (= var2174932 var2174808))
(assert (= temp126_11 #x0000000000000000))
(assert (= temp126_10 temp126_11))
(assert (= temp126_13 #x0000000000000001))
(assert (= temp126_12 temp126_13))
(assert (= temp126_15 #x0000000000000000))
(assert (= temp126_14 temp126_15))
(assert (= temp126_17 #x0000000000000001))
(assert (= temp126_16 temp126_17))
(assert (= temp126_18 #x0000000000000000))
(assert (= var5189464 temp126_18))
(assert (= var5189588 var5189464))
(assert (= temp126_20 #x0000000000000001))
(assert (= temp126_19 temp126_20))
(assert (= temp126_22 #x0000000000000000))
(assert (= temp126_21 temp126_22))
(assert (= temp126_24 #x0000000000000001))
(assert (= temp126_23 temp126_24))
(assert (= temp126_26 #x0000000000000000))
(assert (= temp126_25 temp126_26))
(assert (= temp126_28 #x0000000000000001))
(assert (= temp126_27 temp126_28))
(assert (= temp126_29 #x0000000000000000))
(assert (= var8269656 temp126_29))
(assert (= var8269780 var8269656))
(assert (= temp126_30 #x0000000000000690))
(assert (= var8522311 temp126_30))
(model-add temp126_2 () (_ BitVec 64) #x0000000000000000)
(model-add temp126_1 () (_ BitVec 64) #x0000000000000000)
(model-add temp126_4 () (_ BitVec 64) #x0000000000000001)
(model-add temp126_3 () (_ BitVec 64) #x0000000000000001)
(model-add temp126_6 () (_ BitVec 64) #x0000000000000000)
(model-add temp126_5 () (_ BitVec 64) #x0000000000000000)
(model-add temp126_8 () (_ BitVec 64) #x0000000000000001)
(model-add temp126_7 () (_ BitVec 64) #x0000000000000001)
(model-add temp126_9 () (_ BitVec 64) #x0000000000000000)
(model-add var2174808 () (_ BitVec 64) #x0000000000000000)
(model-add var2174932 () (_ BitVec 64) #x0000000000000000)
(model-add temp126_11 () (_ BitVec 64) #x0000000000000000)
(model-add temp126_10 () (_ BitVec 64) #x0000000000000000)
(model-add temp126_13 () (_ BitVec 64) #x0000000000000001)
(model-add temp126_12 () (_ BitVec 64) #x0000000000000001)
(model-add temp126_15 () (_ BitVec 64) #x0000000000000000)
(model-add temp126_14 () (_ BitVec 64) #x0000000000000000)
(model-add temp126_17 () (_ BitVec 64) #x0000000000000001)
(model-add temp126_16 () (_ BitVec 64) #x0000000000000001)
(model-add temp126_18 () (_ BitVec 64) #x0000000000000000)
(model-add var5189464 () (_ BitVec 64) #x0000000000000000)
(model-add var5189588 () (_ BitVec 64) #x0000000000000000)
(model-add temp126_20 () (_ BitVec 64) #x0000000000000001)
(model-add temp126_19 () (_ BitVec 64) #x0000000000000001)
(model-add temp126_22 () (_ BitVec 64) #x0000000000000000)
(model-add temp126_21 () (_ BitVec 64) #x0000000000000000)
(model-add temp126_24 () (_ BitVec 64) #x0000000000000001)
(model-add temp126_23 () (_ BitVec 64) #x0000000000000001)
(model-add temp126_26 () (_ BitVec 64) #x0000000000000000)
(model-add temp126_25 () (_ BitVec 64) #x0000000000000000)
(model-add temp126_28 () (_ BitVec 64) #x0000000000000001)
(model-add temp126_27 () (_ BitVec 64) #x0000000000000001)
(model-add temp126_29 () (_ BitVec 64) #x0000000000000000)
(model-add var8269656 () (_ BitVec 64) #x0000000000000000)
(model-add var8269780 () (_ BitVec 64) #x0000000000000000)
(model-add temp126_30 () (_ BitVec 64) #x0000000000000690)
(model-add var8522311 () (_ BitVec 64) #x0000000000000690)



